32      4       
14      12      15      15      
0       0       0       0       0       3       2       3       4       
8       1       3       4       4       4       5       7       9       10      
6       9       3       10      1       2       5       9       
9       1       4       1       11      2       5       9       
8       1       1       3       8       1       6       
9       4       9       1       1       1       8       
2       1       1       1       3       1       8       
4       4       1       13      2       2       11      18      
5       1       1       1       6       2       11      18      
9       4       1       1       1       2       11      18      
10      9       1       1       1       3       12      17      20      
8       3       1       5       3       2       13      14      
9       3       3       1       1       2       15      19      
8       2       9       4       6       2       16      19      
6       1       10      8       2       1       16      
6       1       3       1       1       2       21      22      
10      5       1       3       1       2       23      25      
2       11      1       1       8       1       19      
7       1       2       5       5       2       24      25      
8       2       1       3       7       2       24      25      
2       2       5       1       5       1       23      
1       7       1       1       1       2       25      26      
2       1       2       12      10      1       24      
6       4       4       10      1       3       26      27      31      
9       3       3       5       1       3       27      28      31      
6       6       1       4       1       2       28      30      
6       5       4       1       8       2       29      30      
3       9       1       1       4       1       29      
8       1       1       5       1       1       32      
9       2       6       5       4       1       32      
1       1       6       1       5       1       32      
0       0       0       0       0       0       
